seed= 2052018 ;
N= 10 ;
M= 2 ;
F= 2 ;
K= 3 ;
T= 18 ;

p=[ 4 4 4 4 4 4 4 4 4 4 ];
r=[ 3 2 1 0 1 0 0 0 0 0 ];
d=[ 9 3 4 3 5 1 6 1 5 1 ];
s=[ 1 1 1 1 1 1 1 1 1 1 ];
w=[ 4 5 3 2 5 3 4 3 4 1 ];
f=[ 1 1 1 1 1 2 2 2 2 2 ];

e1=[ 10 10 10 10 10 10 10 10 10 8 8 8 8 8 8 8 8 8 ];
e2=[ 10 10 10 10 10 10 9 9 9 8 8 8 8 8 8 9 9 9 ];